% FIXME - model needs to generalise to X, Y instead of N
X = 10;
Y = 12;
D = 5;
B = 23;

digits = 
  [| 0,0,2,0,0,0,1,0,5,0,0,0,
   | 1,0,0,0,0,0,0,0,0,0,0,0,
   | 0,0,0,4,0,0,0,0,0,0,0,0,
   | 0,0,2,0,0,0,0,0,1,0,0,5,
   | 0,0,0,0,4,0,0,0,0,0,4,0,
   | 4,0,0,0,0,0,0,0,2,0,0,0,
   | 0,0,2,0,0,0,3,0,0,0,0,0,
   | 0,3,0,0,0,0,0,4,0,0,1,0,
   | 2,0,0,0,0,0,0,0,0,0,0,0,
   | 5,0,0,1,0,0,4,0,4,5,3,0,
   |];

% digits = 
%   [| 0,0,2,0,0,0,1,0,5,0,0,0,
%    | 1,0,0,0,0,0,0,0,0,0,0,0,
%    | 0,0,0,4,0,0,0,0,0,0,0,0,
%    | 0,0,2,0,0,0,0,2,1,0,0,5,
%    | 0,0,0,0,4,0,0,0,0,0,4,0,
%    | 4,0,0,0,0,0,0,0,2,0,0,0,
%    | 0,0,2,0,0,0,3,0,0,0,0,0,
%    | 0,3,0,0,0,0,0,4,0,0,1,0,
%    | 2,0,0,0,0,0,0,0,0,0,0,0,
%    | 5,0,0,1,0,5,4,0,4,5,3,0,
%    |];


blocks = 
  [| a,a,a,b,b,c,c,d,e,e,f,f,
   | a,a,b,b,c,c,d,d,e,f,f,g,
   | h,i,i,b,c,d,d,e,e,f,g,g,
   | h,h,i,i,j,j,j,j,k,k,g,g,
   | m,h,h,i,n,n,n,j,p,k,k,l,
   | m,m,m,m,n,n,o,o,p,p,k,l,
   | q,r,s,t,t,u,u,o,o,p,p,l,
   | q,r,s,s,t,t,u,u,o,x,l,l,
   | q,r,r,s,s,t,w,u,x,x,y,y,
   | q,q,r,w,w,w,w,x,x,y,y,y,
   |];

% 5, 4, 2, 1, 2, 3, 1, 4, 5, 2, 4, 2, 
% 1, 3, 5, 3, 5, 4, 5, 2, 1, 3, 1, 3, 
% 2, 4, 1, 4, 2, 3, 1, 3, 4, 5, 4, 2, 
% 1, 3, 2, 5, 1, 5, 4, 2, 1, 2, 1, 5, 
% 2, 5, 4, 3, 4, 3, 1, 3, 5, 3, 4, 3, 
% 4, 3, 1, 5, 2, 5, 2, 4, 2, 1, 5, 2, 
% 1, 5, 2, 3, 4, 1, 3, 5, 3, 4, 3, 4, 
% 4, 3, 4, 1, 2, 5, 2, 4, 1, 5, 1, 5, 
% 2, 1, 2, 5, 3, 1, 3, 5, 3, 2, 4, 2, 
% 5, 3, 4, 1, 2, 5, 4, 1, 4, 5, 3, 1, 
